Route #1: 111 106 12 86 62 77 80 11 105 93 117 96 109 75
Route #2: 16 76 65 91 90 89 87
Route #3: 67 45 2 24 60 19 104
Route #4: 120 81 5 99 69 107 6 124
Route #5: 126 100 70 121 52 110 84 119
Route #6: 61 78 36 58 14 57 63
Route #7: 94 40 26 85 44 31 68
Route #8: 47 34 22 35 3 49 46 20
Route #9: 114 125 8 23 7 55 10
Route #10: 30 59 41 56 42 102 18 129
Route #11: 92 83 28 53 21 79
Route #12: 64 88 122 95 112 82 37 108
Route #13: 128 71 118 116 123 54
Route #14: 27 127 72 66 73 33
Route #15: 103 113 101 50 74 97 115
Route #16: 15 43 17 13 38 9 98 32
Route #17: 51 48 29 39 25
Route #18: 4
